# 2D particle pipe simulation

atom_style	sphere
atom_modify	map array
boundary	pp pp pp
newton		off
#processors  2 1 1

communicate single vel yes
read_data 	IC13.in
#read_data 	IC4mmcohe.in

neighbor	5.0e-4 bin
neigh_modify	delay 0

# pair_style  none
pair_style  gran/hooke/history 0.2 NULL 1.91+e2 NULL 0.1 0
pair_coeff  * *
timestep	2.0e-6

velocity    all set 0.0 0.0 0.0 units box

fix		1 all nve/sphere  
fix		2 all gravity 9.8 vector 0 -1 0 # spherical 90.0 -180.0    
fix     3 all fdrag

#fix cohe all cohesive 2.8400e-17 0.01 4.0000e-09 1e-04 1

#fix  xwall all wall/gran 100.0 NULL 1.91+e2 NULL 0.1 0 xplane 0.0 0.01
#fix  ywall all wall/gran 100.0 NULL 1.91+e2 NULL 0.1 0 yplane -0.01 0.01
#fix  zwall all wall/gran 100.0 NULL 1.91+e2 NULL 0.1 0 zplane 0.0 0.01

#fix  xwall all wall/gran 20 NULL 2.3073e+04 NULL 0.1 0 xplane 0.0 0.01
#fix  ywall all wall/gran 20 NULL 2.3073e+04 NULL 0.1 0 yplane 0.0 0.02
#fix  zwall all wall/gran 20 NULL 2.3073e+04 NULL 0.1 0 zplane 0.0 0.01


dump		id all custom 20000 snapshot2.bubblemd id type diameter x y z vx vy vz
#dump		id all custom 1000000 snapshot.bubblemd id type diameter x y z vx vy vz


#dump d0 all image 100 dump.*.jpg type type
#dump m0 all movie 1000 movie.mpg type type size 640 480

#thermo_style  granular # not work. syntax change?
thermo_style  one   # granular does not work
thermo		2000
thermo_modify	lost error
#restart		1000000  restart.*.bubblemd


