# NUFEB simulation

atom_style	bio
atom_modify	map array sort 100 5.0e-6
boundary	ff ff ff
newton		off

comm_modify	vel yes
read_data_bio atom.in

group Heterotrophic type 1

neighbor	5e-7 bin
neigh_modify	delay 0 one 5000

#pair_style none
pair_style  gran/hooke/history 0.0005 NULL 0.00005 NULL 0.5 1

pair_coeff  * *
timestep 18

fix 1 all nve/limit 1e-7

fix 180 all viscous 0.1 

fix xw all wall/gran hooke/history 20000 NULL 5000.0 NULL 1.5 0 xplane  0.0   8e-04
fix yw all wall/gran hooke/history 20000 NULL 5000.0 NULL 1.5 0 yplane  0.0   8e-04
fix zw all wall/gran hooke/history 20000 NULL 5000.0 NULL 1.5 0 zplane  0.0   10e-04

variable kanc equal 50

fix xwa all walladh v_kanc xplane  0.0   8e-04
fix ywa all walladh v_kanc yplane  0.0   8e-04
fix zwa all walladh v_kanc zplane  0.0   10e-04

##############Ibm Variable Definitions##############

#Defining EPS density and ratio variables
variable EPSdens equal 30
variable EPSratio equal 1.25
variable divMass equal 1.52e-16

variable density equal 290
variable ke equal 5e+10

#Defining kinetics variables
variable T equal 298.15
variable gasTran equal 0.08205746
variable gvol equal 8e-14
variable rth equal 0.0083144
variable pressure equal 1
variable ph equal 7.0

#Defining diffusion variables
variable diffT equal 1e-6
variable tol equal 1e-7
variable bl equal 0
variable Q equal 2.31e-7
variable rvol equal 1.25e-3
variable Af equal 0.1

##############Ibm functions##############

fix k1 all kinetics 100 40 40 50 v_T v_rth v_gvol v_gasTran v_ph v_diffT
fix ki2 all kinetics/thermo fix open v_pressure
fix ki1 all kinetics/monod v_EPSdens	
fix g1 all kinetics/diffusion exp v_tol v_bl v_Q v_rvol v_Af pp pp nd

fix d1 all divide 100 v_EPSdens v_divMass 3123

##############Ibm compute##############

compute myNtypes all ntypes
compute myHeight all ave_height 40 40
variable height equal c_myHeight

##############Simulation outputs##############

dump		id all custom 500 snapshot.bubblemd id type diameter x y z
dump            d0 all bio 200 biomass concentration
thermo_style    custom step cpu atoms biomass c_myNtypes[*] c_myHeight
thermo		100
thermo_modify	lost ignore

run 10000

#run 10000 every 100 "if '$height > 5e-4' then 'unfix ki1'" 

