# 2D particle pipe simulation

atom_style	sphere
#atom_modify	array no
atom_modify map array sort 10000 1e-5
boundary	pp pp pp
newton		off
#processors  2 1 1
communicate single vel yes
read_data 	IC13.in


group ch1 type 1
group ch2 type 2
group ch3 type 3

variable size1 equal ramp(1e-6,1e-4)
variable size2 equal ramp(1e-6,0.5e-4)
variable size3 equal ramp(1e-6,0.3e-4)

fix chg1 ch1 adapt 1000 atom diameter v_size1 scale yes
fix chg2 ch2 adapt 1000 atom diameter v_size2 scale yes 
fix chg3 ch3 adapt 1000 atom diameter v_size3 scale yes 

#neighbor	1.0e-4 bin
#neigh_modify	delay 0

# pair_style  none
#pair_style  gran/hooke/history 0.2 NULL 1.91+e2 NULL 0.1 0
#pair_coeff  * *
timestep	1e-4

#velocity all create 1e-20 49234343 rot no dist gaussian

fix		1 all nve/sphere  
#fix		2 all gravity 9.8 vector 0 -1 0 # spherical 90.0 -180.0    
#fix     3 all fdrag

dump		id all custom 5000 snapshot2.bubblemd id type diameter x y z vx vy vz
#dump		id all custom 1000000 snapshot.bubblemd id type diameter x y z vx vy vz


#dump d0 all image 100 dump.*.jpg type type
#dump m0 all movie 1000 movie.mpg type type size 640 480

#thermo_style  granular # not work. syntax change?
thermo_style  one   # granular does not work
thermo		2000
thermo_modify	lost error
#restart		1000000  restart.*.bubblemd

run 250000
