# NUFEB simulation
units si
atom_style      bio
atom_modify     map array sort 100 5.0e-7
boundary        pp pp ff
newton          off
processors  * * *

comm_modify     vel yes
read_data_bio atom.in

group AOB type 1
group DEAD type 2

##############Define initial particle distribution##############

lattice sc 2e-6 origin 0.5 0.5 0.5
region reg block 0 10 0 10 0 1
create_atoms 1 region reg

set type 1 diameter 1.684e-6
set type 1 density 400
set type 1 mass 1e-15

neighbor        5e-7 bin
neigh_modify    delay 0 one 5000

##############Define DEM Variables&Commands##############

pair_style  gran/hooke/history 1.e-4 NULL 1.e-5 NULL 0.0 1
pair_coeff  * *

timestep 3600 

fix 1 all nve/limit 1e-7
fix fv all viscous 1e-5

fix zw all wall/gran hooke/history 2000 NULL 500 NULL 1.5 0 zplane  0.0  3e-04

variable kanc equal 0
fix zwa all walladh v_kanc zplane  0.0   3e-04

variable ke equal 5e+9
#fix j1 all epsadh 1 v_ke 1

##############Ibm Variable Definitions##############

#Defining EPS density and ratio variables
variable EPSdens equal 30
variable EPSratio equal 1.25

#variables used in fix division
variable divDia equal 1e-6

#Defining diffusion variables
variable diffT equal 1e-4
variable tol equal 5e-7
variable etaHET equal 0.0
variable layer equal -1

#variables used in fix death
variable deadDia equal 5.85e-7

##############Ibm functions##############

fix k1 all kinetics 1 10 10 10 v_diffT v_layer ph 7.5 
#fix ki3 all kinetics/ph
fix ki2 all kinetics/thermo
fix ki1 all kinetics/growth/energy v_EPSdens 
fix g1 all kinetics/diffusion v_tol pp pp nd mol dcflag 0
fix d2 all death 1 v_deadDia
#fix d1 all divide 1 v_EPSdens v_divDia 31231 

##############Ibm compute##############

compute myNtypes all ntypes
compute myMass all biomass

##############Simulation outputs##############

thermo_style    custom step cpu atoms biomass c_myNtypes[*]
dump du0 all bio 1 biomass ntypes con
#dump du2 all grid 100 grid_%_*.vti con hyd
#dump du3 all custom/vtk 100 snapshot%_*.vtu id type diameter x y z
#dump du4 all bio/hdf5 100 dump_*.h5 id type radius x y z con cat ana hyd
thermo 1
thermo_modify   lost ignore

##############Define Bio-loop and DEM-subloop##############

run 10


